(set-logic QF_S)
(declare-fun var0 () String)
(assert (str.in.re var0 (re.++ (re.* (re.union (str.to.re "00") (str.to.re "111"))) (re.++ (re.union (re.+ (str.to.re "22")) (re.+ (str.to.re "3"))) (re.++ (re.union (re.union (str.to.re "44") (str.to.re "55")) (re.union (str.to.re "6") (str.to.re "7"))) (re.++ (re.union (re.* (str.to.re "8")) (re.* (str.to.re "999"))) (re.++ (re.* (re.* (str.to.re "a"))) (re.++ (re.+ (re.union (str.to.re "b") (str.to.re "c"))) (re.++ (re.union (re.* (str.to.re "dd")) (re.* (str.to.re "e"))) (re.++ (re.union (re.* (str.to.re "f")) (re.* (str.to.re "gg"))) (re.++ (re.+ (re.+ (str.to.re "h"))) (re.++ (re.union (re.* (str.to.re "iii")) (re.* (str.to.re "j"))) (re.union (re.* (str.to.re "k")) (re.* (str.to.re "l")))))))))))))))
(assert (not (str.in.re var0 (re.++ (re.+ (re.* (str.to.re "0"))) (re.++ (re.* (re.+ (str.to.re "1"))) (re.++ (re.* (re.* (str.to.re "2"))) (re.++ (re.* (re.union (str.to.re "3") (str.to.re "444"))) (re.++ (re.union (re.union (str.to.re "5") (str.to.re "66")) (re.union (str.to.re "77") (str.to.re "88"))) (re.++ (re.union (re.+ (str.to.re "9")) (re.+ (str.to.re "aaa"))) (re.++ (re.union (re.* (str.to.re "bb")) (re.* (str.to.re "ccc"))) (re.++ (re.* (re.union (str.to.re "ddd") (str.to.re "e"))) (re.++ (re.+ (re.* (str.to.re "ff"))) (re.++ (re.union (re.+ (str.to.re "gg")) (re.+ (str.to.re "hhh"))) (re.+ (re.* (str.to.re "ii"))))))))))))))))
(check-sat)